&CONTROL
    calculation = 'relax',
    verbosity = 'high'
    prefix = 'hy2_R.in' 
    outdir='./outdir'      
    tstress = .True.
    tprnfor = .True.
    etot_conv_thr = 1.0D-4
    forc_conv_thr = 1.0D-3
    pseudo_dir = '/home/jk7877/qe_potentials'
 /
 &SYSTEM
    ibrav= 1,
    A= 10,
    nat= 2,
    ntyp= 1, 
    ecutwfc= 50.0,
    ecutrho= 350.0,
    occupations='smearing',
    smearing='marzari-vanderbilt',
    degauss= 0.02
/
 /
 &ELECTRONS
    mixing_beta = 0.7
    electron_maxstep = 100
 /
 &IONS
 /

ATOMIC_SPECIES
H         1.00784         H.pbe-kjpaw_psl.1.0.0.UPF

ATOMIC_POSITIONS (angstrom)
H       -0.2514600167      3.1530002090      4.5302799930                 
H       -0.1951999833      2.4476397910      4.5540600070                 

K_POINTS gamma
