&CONTROL
    calculation = 'relax',
    verbosity = 'high'
    prefix = 'LiH_R.in'
    outdir='./outdir'    
    tstress = .True.
    tprnfor = .True.
    etot_conv_thr = 1.0D-4
    forc_conv_thr = 1.0D-3
    pseudo_dir = '/home/jk7877/qe_potentials'
 /
 &SYSTEM
    ibrav = 0,
    nat = 2, 
    ntyp = 2,
    ecutwfc = 40.0,
    ecutrho = 450.0,
    occupations = 'smearing',
    smearing = 'marzari-vanderbilt',
    degauss = 0.02
 /
 &ELECTRONS
    mixing_beta = 0.7
    electron_maxstep = 100
 /
 &IONS
 /

ATOMIC_SPECIES
H         1.00784         H.pbe-kjpaw_psl.1.0.0.UPF
Li        6.94100         Li.pbe-sl-kjpaw_psl.1.0.0.UPF

ATOMIC_POSITIONS (angstrom)
Li       0.0000000000      0.0000000000      0.0000000000                 
H        0.5000000000      0.5000000000      0.5000000000                   
                
K_POINTS (automatic)
 16 16 16 1 1 1
 
CELL_PARAMETERS angstrom
      2.8285501600       0.0000000000       0.0000000000
      1.4142750800       2.4495962944       0.0000000000
      1.4142750800       0.8165320981       2.3095015346